NAME          DCAP_3_4_2_200_SS131
ROWS
 N  OBJ
 L  CON1
 L  CON2
 L  CON3
 L  CON4
 L  CON5
 L  CON6
 L  CON7
 L  CON8
 L  CON9
 L  CON10
 L  CON11
 L  CON12
 E  CON13
 E  CON14
 E  CON15
 E  CON16
 E  CON17
 E  CON18
 E  CON19
 E  CON20
COLUMNS
    x[1,1]    OBJ       6.180167      CON1      1.000000    
    x[1,1]    CON7      -1.000000     CON8      -1.000000   
    x[1,2]    OBJ       5.039546      CON2      1.000000    
    x[1,2]    CON8      -1.000000   
    x[2,1]    OBJ       6.732585      CON3      1.000000    
    x[2,1]    CON9      -1.000000     CON10     -1.000000   
    x[2,2]    OBJ       7.443064      CON4      1.000000    
    x[2,2]    CON10     -1.000000   
    x[3,1]    OBJ       6.563535      CON5      1.000000    
    x[3,1]    CON11     -1.000000     CON12     -1.000000   
    x[3,2]    OBJ       6.054841      CON6      1.000000    
    x[3,2]    CON12     -1.000000   
    MARKER    'MARKER'                'INTORG'
    u[1,1]    OBJ       48.076654     CON1      -1.000000   
    u[1,2]    OBJ       49.466655     CON2      -1.000000   
    u[2,1]    OBJ       49.996186     CON3      -1.000000   
    u[2,2]    OBJ       32.230043     CON4      -1.000000   
    u[3,1]    OBJ       20.066487     CON5      -1.000000   
    u[3,2]    OBJ       27.484319     CON6      -1.000000   
    y[1,1,1]  OBJ       9.833522      CON7      1.478705    
    y[1,1,1]  CON13     1.000000    
    y[1,1,2]  OBJ       7.013958      CON8      0.521530    
    y[1,1,2]  CON14     1.000000    
    y[1,2,1]  OBJ       9.399778      CON7      1.282036    
    y[1,2,1]  CON15     1.000000    
    y[1,2,2]  OBJ       5.805304      CON8      0.619343    
    y[1,2,2]  CON16     1.000000    
    y[1,3,1]  OBJ       9.665593      CON7      1.140984    
    y[1,3,1]  CON17     1.000000    
    y[1,3,2]  OBJ       6.991431      CON8      1.419681    
    y[1,3,2]  CON18     1.000000    
    y[1,4,1]  OBJ       8.481201      CON7      1.497111    
    y[1,4,1]  CON19     1.000000    
    y[1,4,2]  OBJ       9.044088      CON8      0.978476    
    y[1,4,2]  CON20     1.000000    
    y[2,1,1]  OBJ       7.798079      CON9      1.478705    
    y[2,1,1]  CON13     1.000000    
    y[2,1,2]  OBJ       8.783200      CON10     0.521530    
    y[2,1,2]  CON14     1.000000    
    y[2,2,1]  OBJ       6.225905      CON9      1.282036    
    y[2,2,1]  CON15     1.000000    
    y[2,2,2]  OBJ       7.821771      CON10     0.619343    
    y[2,2,2]  CON16     1.000000    
    y[2,3,1]  OBJ       6.013092      CON9      1.140984    
    y[2,3,1]  CON17     1.000000    
    y[2,3,2]  OBJ       8.320300      CON10     1.419681    
    y[2,3,2]  CON18     1.000000    
    y[2,4,1]  OBJ       7.522490      CON9      1.497111    
    y[2,4,1]  CON19     1.000000    
    y[2,4,2]  OBJ       7.076236      CON10     0.978476    
    y[2,4,2]  CON20     1.000000    
    y[3,1,1]  OBJ       6.579814      CON11     1.478705    
    y[3,1,1]  CON13     1.000000    
    y[3,1,2]  OBJ       8.677895      CON12     0.521530    
    y[3,1,2]  CON14     1.000000    
    y[3,2,1]  OBJ       7.677865      CON11     1.282036    
    y[3,2,1]  CON15     1.000000    
    y[3,2,2]  OBJ       9.242040      CON12     0.619343    
    y[3,2,2]  CON16     1.000000    
    y[3,3,1]  OBJ       5.451049      CON11     1.140984    
    y[3,3,1]  CON17     1.000000    
    y[3,3,2]  OBJ       9.256756      CON12     1.419681    
    y[3,3,2]  CON18     1.000000    
    y[3,4,1]  OBJ       6.609088      CON11     1.497111    
    y[3,4,1]  CON19     1.000000    
    y[3,4,2]  OBJ       8.155028      CON12     0.978476    
    y[3,4,2]  CON20     1.000000    
    z[1,1]    OBJ       775.495180    CON13     1.000000    
    z[1,2]    OBJ       647.927171    CON14     1.000000    
    z[2,1]    OBJ       948.138495    CON15     1.000000    
    z[2,2]    OBJ       703.725055    CON16     1.000000    
    z[3,1]    OBJ       806.696517    CON17     1.000000    
    z[3,2]    OBJ       596.100022    CON18     1.000000    
    z[4,1]    OBJ       661.121182    CON19     1.000000    
    z[4,2]    OBJ       738.609286    CON20     1.000000    
    MARKER    'MARKER'                 'INTEND'
RHS
    RHS       CON1      -0.000000     CON2      -0.000000   
    RHS       CON3      -0.000000     CON4      -0.000000   
    RHS       CON5      -0.000000     CON6      -0.000000   
    RHS       CON7      -0.000000     CON8      -0.000000   
    RHS       CON9      -0.000000     CON10     -0.000000   
    RHS       CON11     -0.000000     CON12     -0.000000   
    RHS       CON13     1.000000      CON14     1.000000    
    RHS       CON15     1.000000      CON16     1.000000    
    RHS       CON17     1.000000      CON18     1.000000    
    RHS       CON19     1.000000      CON20     1.000000    
BOUNDS
 BV BOUND     u[1,1]  
 BV BOUND     u[1,2]  
 BV BOUND     u[2,1]  
 BV BOUND     u[2,2]  
 BV BOUND     u[3,1]  
 BV BOUND     u[3,2]  
 BV BOUND     y[1,1,1]
 BV BOUND     y[1,1,2]
 BV BOUND     y[1,2,1]
 BV BOUND     y[1,2,2]
 BV BOUND     y[1,3,1]
 BV BOUND     y[1,3,2]
 BV BOUND     y[1,4,1]
 BV BOUND     y[1,4,2]
 BV BOUND     y[2,1,1]
 BV BOUND     y[2,1,2]
 BV BOUND     y[2,2,1]
 BV BOUND     y[2,2,2]
 BV BOUND     y[2,3,1]
 BV BOUND     y[2,3,2]
 BV BOUND     y[2,4,1]
 BV BOUND     y[2,4,2]
 BV BOUND     y[3,1,1]
 BV BOUND     y[3,1,2]
 BV BOUND     y[3,2,1]
 BV BOUND     y[3,2,2]
 BV BOUND     y[3,3,1]
 BV BOUND     y[3,3,2]
 BV BOUND     y[3,4,1]
 BV BOUND     y[3,4,2]
 BV BOUND     z[1,1]  
 BV BOUND     z[1,2]  
 BV BOUND     z[2,1]  
 BV BOUND     z[2,2]  
 BV BOUND     z[3,1]  
 BV BOUND     z[3,2]  
 BV BOUND     z[4,1]  
 BV BOUND     z[4,2]  
ENDATA
